
Gurobi 11.0.2 (win64) logging started Sun Aug 18 13:03:20 2024

Set parameter LogFile to value "D:\Documenti\Scuola\Laurea magistrale unibs\laurea-unibs-mkfsp\output\2024-08-18T10_03_15.889499\logs\instance07_bucket1.log"
Set parameter TimeLimit to value 350
Set parameter MIPGap to value 0
Gurobi Optimizer version 11.0.2 build v11.0.2rc0 (win64 - Windows 10.0 (19045.2))

CPU model: Intel(R) Core(TM) i5-4670 CPU @ 3.40GHz, instruction set [SSE2|AVX|AVX2]
Thread count: 4 physical cores, 4 logical processors, using up to 4 threads

Optimize a model with 491 rows, 1130 columns and 31026 nonzeros
Model fingerprint: 0xbe76abdd
Variable types: 0 continuous, 1130 integer (1105 binary)
Coefficient statistics:
  Matrix range     [1e+00, 1e+03]
  Objective range  [7e+02, 8e+03]
  Bounds range     [1e+00, 1e+00]
  RHS range        [1e+00, 3e+04]
Found heuristic solution: objective -0.0000000
Presolve time: 0.05s
Presolved: 491 rows, 1130 columns, 31026 nonzeros
Variable types: 0 continuous, 1130 integer (1105 binary)

Root relaxation: objective 1.547310e+05, 283 iterations, 0.00 seconds (0.00 work units)

    Nodes    |    Current Node    |     Objective Bounds      |     Work
 Expl Unexpl |  Obj  Depth IntInf | Incumbent    BestBd   Gap | It/Node Time

H    0     0                    154731.00000 154731.000  0.00%     -    0s
     0     0 154731.000    0   90 154731.000 154731.000  0.00%     -    0s

Explored 1 nodes (283 simplex iterations) in 0.07 seconds (0.05 work units)
Thread count was 4 (of 4 available processors)

Solution count 2: 154731 -0 

Optimal solution found (tolerance 0.00e+00)
Best objective 1.547310000000e+05, best bound 1.547310000000e+05, gap 0.0000%
